language ESSENCE' 1.0
letting mainRow be 10
letting mainCol be 8
letting topRows be 5
letting leftCols be 4
letting leftMatrix be [
[1, 3, 0, 0],
[1, 1, 0, 0],
[2, 1, 1, 1],
[2, 0, 0, 0],
[1, 2, 2, 0],
[4, 0, 0, 0],
[1, 4, 1, 0],
[1, 2, 2, 0],
[1, 1, 0, 0],
[2, 2, 0, 0],
]
letting topMatrix be [
[1, 2, 1, 6, 1, 1, 2, 1],
[1, 1, 1, 0, 3, 1, 1, 1],
[2, 2, 3, 0, 0, 1, 3, 2],
[1, 0, 0, 0, 0, 1, 0, 0],
[0, 0, 0, 0, 0, 0, 0, 0],

]